decision_x1=[0,7];
decision_x2=[0,7];
decision_x3=[0,7];
decision_x4=[0,7];
decision_x5=[0,7];
decision_x6=[0,7];
decision_x7=[0,7];
decision_x8=[0,7];
decision_x9=[0,7];
decision_x10=[0,7];
decision_x11=[0,7];
decision_x12=[0,7];
decision_x13=[0,7];
decision_x14=[0,7];
decision_x15=[0,7];
decision_x16=[0,7];
decision_x17=[0,7];
decision_x18=[0,7];
decision_x19=[0,7];
decision_x20=[0,7];
random_y1=[0,7];
random_y2=[0,7];
random_y3=[0,7];
random_y4=[0,7];
random_y5=[0,7];
random_y6=[0,7];
random_y7=[0,7];
random_y8=[0,7];
random_y9=[0,7];
constraint_x2_x1=[
0,0,4.2|
0,1,2|
0,2,9.9|
0,3,2|
0,4,2.4|
0,5,5.9|
0,6,3.5|
0,7,4.2|
1,0,10|
1,1,1.1|
1,2,4.3|
1,3,5.1|
1,4,4.8|
1,5,4.5|
1,6,1.5|
1,7,8.7|
2,0,5.3|
2,1,2.7|
2,2,5.2|
2,3,1.1|
2,4,6|
2,5,2.6|
2,6,9.2|
2,7,5.7|
3,0,4.1|
3,1,5.5|
3,2,9|
3,3,2.7|
3,4,9.9|
3,5,1.6|
3,6,4.4|
3,7,6.3|
4,0,4.2|
4,1,7.5|
4,2,1.7|
4,3,6.3|
4,4,8.9|
4,5,8.8|
4,6,3.2|
4,7,5.1|
5,0,8.3|
5,1,9.4|
5,2,0.31|
5,3,1.5|
5,4,0.13|
5,5,5.3|
5,6,4.7|
5,7,9.8|
6,0,9.5|
6,1,7.9|
6,2,3.3|
6,3,6.4|
6,4,0.84|
6,5,6.8|
6,6,4|
6,7,4.4|
7,0,8.8|
7,1,5.8|
7,2,5|
7,3,1.7|
7,4,3.2|
7,5,5.1|
7,6,8.3|
7,7,3.1|
];
constraint_x3_x2=[
0,0,0.45|
0,1,7.8|
0,2,2.8|
0,3,1.8|
0,4,9.1|
0,5,1.9|
0,6,2.4|
0,7,7.3|
1,0,0.39|
1,1,6.8|
1,2,7|
1,3,3.1|
1,4,4.3|
1,5,0.38|
1,6,8.8|
1,7,2.3|
2,0,4.4|
2,1,9.8|
2,2,7.7|
2,3,2|
2,4,1.4|
2,5,2|
2,6,4.8|
2,7,7.1|
3,0,4.8|
3,1,1.3|
3,2,7.2|
3,3,9.4|
3,4,3.2|
3,5,2.6|
3,6,1.8|
3,7,0.88|
4,0,5.7|
4,1,1.7|
4,2,7.6|
4,3,4.4|
4,4,4.5|
4,5,4.3|
4,6,6.9|
4,7,3.2|
5,0,2.6|
5,1,7.5|
5,2,9.5|
5,3,9|
5,4,6.3|
5,5,4|
5,6,6.5|
5,7,8|
6,0,3.4|
6,1,8.1|
6,2,3.1|
6,3,3.8|
6,4,2.7|
6,5,0.31|
6,6,2.1|
6,7,0.063|
7,0,9.6|
7,1,9.3|
7,2,3.4|
7,3,5.9|
7,4,5.2|
7,5,6.1|
7,6,2.3|
7,7,9.9|
];
constraint_x4_x3=[
0,0,8.3|
0,1,2.2|
0,2,4.5|
0,3,4.1|
0,4,3.9|
0,5,4.6|
0,6,5.2|
0,7,6.4|
1,0,9.4|
1,1,1.8|
1,2,3.2|
1,3,7.3|
1,4,7.4|
1,5,3.8|
1,6,1.4|
1,7,3.2|
2,0,0.9|
2,1,4.2|
2,2,4|
2,3,4.2|
2,4,8.8|
2,5,8.5|
2,6,9.3|
2,7,3.3|
3,0,1.3|
3,1,3.4|
3,2,6.1|
3,3,7.9|
3,4,7.8|
3,5,7.1|
3,6,7.5|
3,7,5.1|
4,0,2.8|
4,1,0.94|
4,2,4.9|
4,3,1.5|
4,4,4.8|
4,5,2.2|
4,6,7.3|
4,7,8.5|
5,0,9.9|
5,1,0.67|
5,2,2.8|
5,3,8.7|
5,4,7.4|
5,5,7.2|
5,6,9.6|
5,7,1.1|
6,0,4.3|
6,1,6.2|
6,2,7.9|
6,3,8.5|
6,4,5.3|
6,5,9.9|
6,6,7.1|
6,7,6.5|
7,0,0.98|
7,1,7|
7,2,2.9|
7,3,8.7|
7,4,6.4|
7,5,1.5|
7,6,5.4|
7,7,5.8|
];
constraint_x5_x1=[
0,0,7.3|
0,1,8.5|
0,2,4.7|
0,3,5.9|
0,4,0.38|
0,5,1.3|
0,6,8.5|
0,7,6.2|
1,0,5.2|
1,1,9.4|
1,2,1.2|
1,3,3.1|
1,4,6.7|
1,5,2.9|
1,6,4.8|
1,7,5.8|
2,0,1|
2,1,3.8|
2,2,8.5|
2,3,1.4|
2,4,7.2|
2,5,1.1|
2,6,0.33|
2,7,6.8|
3,0,5.4|
3,1,8.7|
3,2,3.3|
3,3,4|
3,4,2.9|
3,5,0.31|
3,6,0.6|
3,7,5.2|
4,0,7.3|
4,1,9.3|
4,2,8.1|
4,3,2.6|
4,4,3.2|
4,5,0.082|
4,6,5.6|
4,7,3.1|
5,0,5.2|
5,1,8.1|
5,2,8.1|
5,3,7.2|
5,4,2.4|
5,5,0.84|
5,6,9.3|
5,7,2.8|
6,0,7.4|
6,1,9|
6,2,1.5|
6,3,5.9|
6,4,7.8|
6,5,2|
6,6,0.31|
6,7,8.9|
7,0,2.1|
7,1,6.1|
7,2,1.2|
7,3,5.8|
7,4,2.1|
7,5,8.1|
7,6,0.054|
7,7,1.1|
];
constraint_x6_x2=[
0,0,7.8|
0,1,9.1|
0,2,1.3|
0,3,3.2|
0,4,6.8|
0,5,2.4|
0,6,8.5|
0,7,4.6|
1,0,2.9|
1,1,4.6|
1,2,7.4|
1,3,4.7|
1,4,0.2|
1,5,3.5|
1,6,0.63|
1,7,2.1|
2,0,5.4|
2,1,5.6|
2,2,8.3|
2,3,8.4|
2,4,1.6|
2,5,8.4|
2,6,5.8|
2,7,2.1|
3,0,1.1|
3,1,0.71|
3,2,8.1|
3,3,0.19|
3,4,6|
3,5,9.2|
3,6,8.8|
3,7,5.1|
4,0,5.3|
4,1,3.4|
4,2,9.8|
4,3,8.5|
4,4,2.3|
4,5,6.7|
4,6,3.6|
4,7,1.3|
5,0,0.55|
5,1,8.3|
5,2,0.83|
5,3,8|
5,4,9.8|
5,5,0.0018|
5,6,2.3|
5,7,5.4|
6,0,3.4|
6,1,4.7|
6,2,4.8|
6,3,8.5|
6,4,7|
6,5,0.57|
6,6,0.14|
6,7,7.2|
7,0,7.2|
7,1,0.026|
7,2,1.7|
7,3,9.9|
7,4,0.086|
7,5,1.5|
7,6,4.8|
7,7,7.7|
];
constraint_x6_x5=[
0,0,3.7|
0,1,1.5|
0,2,5.8|
0,3,0.78|
0,4,3.6|
0,5,4.3|
0,6,5|
0,7,2.1|
1,0,3.2|
1,1,4.3|
1,2,0.56|
1,3,1.1|
1,4,6.6|
1,5,9|
1,6,2.8|
1,7,6.2|
2,0,4.6|
2,1,9|
2,2,9.8|
2,3,5.1|
2,4,7.4|
2,5,2.7|
2,6,4|
2,7,5.1|
3,0,3.3|
3,1,3.9|
3,2,2|
3,3,1.4|
3,4,8.6|
3,5,1.9|
3,6,9.6|
3,7,5.5|
4,0,7.6|
4,1,9|
4,2,5.9|
4,3,3.9|
4,4,5.5|
4,5,3.7|
4,6,6.2|
4,7,9.8|
5,0,7.3|
5,1,8.2|
5,2,5.3|
5,3,0.88|
5,4,3.9|
5,5,5.7|
5,6,2.3|
5,7,0.74|
6,0,6|
6,1,4.1|
6,2,7.2|
6,3,4.3|
6,4,8.6|
6,5,9.9|
6,6,5.5|
6,7,3.9|
7,0,3.8|
7,1,2.3|
7,2,9.9|
7,3,0.87|
7,4,6.3|
7,5,0.89|
7,6,0.71|
7,7,8.6|
];
constraint_x7_x3=[
0,0,4.7|
0,1,5.9|
0,2,6.8|
0,3,0.69|
0,4,3.2|
0,5,8.3|
0,6,0.54|
0,7,9.5|
1,0,8.6|
1,1,5.4|
1,2,6.5|
1,3,4.6|
1,4,9.6|
1,5,5.1|
1,6,5.4|
1,7,5.1|
2,0,3.2|
2,1,5.1|
2,2,1.9|
2,3,6.4|
2,4,7.1|
2,5,4.4|
2,6,6.2|
2,7,5.3|
3,0,8|
3,1,6.5|
3,2,2.4|
3,3,7.9|
3,4,5.6|
3,5,7|
3,6,3.2|
3,7,5.2|
4,0,7.6|
4,1,6.9|
4,2,3.6|
4,3,0.2|
4,4,0.74|
4,5,1.7|
4,6,1.6|
4,7,4.3|
5,0,7|
5,1,8.6|
5,2,0.85|
5,3,3.1|
5,4,7.4|
5,5,4.6|
5,6,4.7|
5,7,0.69|
6,0,0.032|
6,1,6.2|
6,2,4.1|
6,3,9.6|
6,4,0.5|
6,5,6.4|
6,6,6.7|
6,7,7.7|
7,0,3.2|
7,1,3.9|
7,2,1.6|
7,3,10|
7,4,8.2|
7,5,1|
7,6,2.4|
7,7,8.3|
];
constraint_x7_x6=[
0,0,1.1|
0,1,0.6|
0,2,2.7|
0,3,0.2|
0,4,5|
0,5,4.9|
0,6,4.6|
0,7,0.28|
1,0,7.3|
1,1,2.8|
1,2,3.8|
1,3,1|
1,4,6.1|
1,5,6.1|
1,6,4.6|
1,7,8.7|
2,0,4.7|
2,1,0.38|
2,2,7|
2,3,9.9|
2,4,5.4|
2,5,2.2|
2,6,6|
2,7,8.9|
3,0,4|
3,1,1|
3,2,8.3|
3,3,5.5|
3,4,3.8|
3,5,1.8|
3,6,3.9|
3,7,3.8|
4,0,1|
4,1,7.1|
4,2,7.2|
4,3,4.4|
4,4,0.38|
4,5,2.3|
4,6,6.5|
4,7,8.5|
5,0,5.5|
5,1,8.3|
5,2,9.5|
5,3,6.4|
5,4,4.9|
5,5,5.3|
5,6,4.3|
5,7,2.3|
6,0,8.4|
6,1,0.66|
6,2,6.1|
6,3,4.8|
6,4,7.8|
6,5,8.5|
6,6,5.6|
6,7,5.1|
7,0,5.8|
7,1,2.5|
7,2,7.1|
7,3,8.2|
7,4,4.2|
7,5,6.3|
7,6,1.9|
7,7,2.3|
];
constraint_x8_x4=[
0,0,5.7|
0,1,8.2|
0,2,9.5|
0,3,5.2|
0,4,2.1|
0,5,4.6|
0,6,9.3|
0,7,7.3|
1,0,3|
1,1,1.9|
1,2,1.1|
1,3,9.9|
1,4,8.9|
1,5,8.2|
1,6,7.5|
1,7,2.7|
2,0,0.71|
2,1,7.8|
2,2,6.4|
2,3,3.4|
2,4,9.3|
2,5,1|
2,6,1.1|
2,7,9.3|
3,0,2.1|
3,1,9.9|
3,2,4.1|
3,3,1.7|
3,4,1.9|
3,5,2.2|
3,6,3.3|
3,7,5.5|
4,0,5.3|
4,1,9.1|
4,2,9.1|
4,3,7.3|
4,4,8.1|
4,5,2.9|
4,6,5.6|
4,7,8.1|
5,0,7.3|
5,1,7.2|
5,2,9.7|
5,3,1.3|
5,4,6.4|
5,5,3.8|
5,6,2|
5,7,8.9|
6,0,9.9|
6,1,6.9|
6,2,6.1|
6,3,6.6|
6,4,9.3|
6,5,7.5|
6,6,4|
6,7,3.4|
7,0,3.9|
7,1,6.6|
7,2,4.4|
7,3,7.6|
7,4,4.4|
7,5,0.77|
7,6,9.5|
7,7,5|
];
constraint_x8_x7=[
0,0,1.4|
0,1,0.46|
0,2,1|
0,3,6.7|
0,4,0.23|
0,5,0.41|
0,6,2.8|
0,7,8.3|
1,0,4.1|
1,1,3.5|
1,2,0.96|
1,3,2.5|
1,4,2.5|
1,5,0.62|
1,6,7.8|
1,7,1.4|
2,0,9.8|
2,1,2.5|
2,2,0.23|
2,3,5.5|
2,4,1.1|
2,5,8.7|
2,6,4.6|
2,7,7.3|
3,0,9.8|
3,1,2.9|
3,2,9.7|
3,3,7.1|
3,4,1.6|
3,5,9.1|
3,6,10|
3,7,4.5|
4,0,0.65|
4,1,5.8|
4,2,3.3|
4,3,3.3|
4,4,1.1|
4,5,8.5|
4,6,8.8|
4,7,5.1|
5,0,7.9|
5,1,0.5|
5,2,6.5|
5,3,0.14|
5,4,5.1|
5,5,9|
5,6,1.3|
5,7,8.2|
6,0,1.9|
6,1,4.7|
6,2,1.9|
6,3,5.9|
6,4,8|
6,5,5.9|
6,6,3.7|
6,7,0.66|
7,0,1.8|
7,1,6.2|
7,2,1.8|
7,3,7.2|
7,4,5.9|
7,5,7.9|
7,6,0.96|
7,7,5.1|
];
constraint_x9_x5=[
0,0,4.2|
0,1,8.9|
0,2,4.4|
0,3,6.7|
0,4,7.5|
0,5,3.6|
0,6,4.5|
0,7,7.1|
1,0,7.4|
1,1,8.2|
1,2,4.3|
1,3,0.57|
1,4,7.8|
1,5,1.2|
1,6,2|
1,7,3.7|
2,0,0.3|
2,1,3.7|
2,2,10|
2,3,1.7|
2,4,5.1|
2,5,4.6|
2,6,9.5|
2,7,5.4|
3,0,1.6|
3,1,8.9|
3,2,7.3|
3,3,5.9|
3,4,6.3|
3,5,0.71|
3,6,1.1|
3,7,0.9|
4,0,7.1|
4,1,8|
4,2,9.8|
4,3,4.3|
4,4,0.12|
4,5,5.2|
4,6,3.3|
4,7,0.86|
5,0,0.94|
5,1,0.38|
5,2,1.4|
5,3,4.1|
5,4,4.9|
5,5,6.1|
5,6,1.3|
5,7,5.1|
6,0,6.5|
6,1,5.7|
6,2,9.5|
6,3,6.5|
6,4,9|
6,5,0.84|
6,6,4.6|
6,7,6.1|
7,0,0.27|
7,1,2.4|
7,2,2.4|
7,3,9|
7,4,2.1|
7,5,5.5|
7,6,2|
7,7,7.1|
];
constraint_x10_x6=[
0,0,7.4|
0,1,6|
0,2,0.2|
0,3,0.89|
0,4,8.8|
0,5,2.3|
0,6,4.1|
0,7,0.2|
1,0,3.5|
1,1,5|
1,2,9.2|
1,3,4.3|
1,4,3.7|
1,5,4|
1,6,5.4|
1,7,2.5|
2,0,0.16|
2,1,7.9|
2,2,6.9|
2,3,3.2|
2,4,9|
2,5,3|
2,6,2.9|
2,7,8.6|
3,0,7.2|
3,1,4.2|
3,2,5.5|
3,3,0.95|
3,4,8.9|
3,5,6.3|
3,6,1.1|
3,7,3|
4,0,5.9|
4,1,9.5|
4,2,4.6|
4,3,3.1|
4,4,3.8|
4,5,5.8|
4,6,3.5|
4,7,3.6|
5,0,8|
5,1,6.1|
5,2,3.5|
5,3,4.3|
5,4,3.8|
5,5,2.1|
5,6,6.5|
5,7,8.3|
6,0,8.5|
6,1,0.46|
6,2,2.6|
6,3,1.6|
6,4,1.6|
6,5,4.1|
6,6,8.1|
6,7,2.4|
7,0,3.2|
7,1,6.2|
7,2,3.5|
7,3,4.6|
7,4,1.4|
7,5,4.4|
7,6,7.1|
7,7,4.3|
];
constraint_x10_x9=[
0,0,5.3|
0,1,3.7|
0,2,1.2|
0,3,7.3|
0,4,1|
0,5,7|
0,6,5.9|
0,7,0.13|
1,0,8.3|
1,1,2.9|
1,2,0.24|
1,3,1.8|
1,4,7.2|
1,5,2.6|
1,6,6.1|
1,7,6.8|
2,0,6.9|
2,1,8.5|
2,2,4.1|
2,3,1.1|
2,4,4.4|
2,5,9.7|
2,6,2.8|
2,7,5.2|
3,0,2.6|
3,1,6.2|
3,2,1.5|
3,3,8.2|
3,4,6.7|
3,5,6.8|
3,6,1.6|
3,7,8.3|
4,0,8.6|
4,1,6|
4,2,7.3|
4,3,9.7|
4,4,3.3|
4,5,2.7|
4,6,1.8|
4,7,2.4|
5,0,7.2|
5,1,9.8|
5,2,3.3|
5,3,0.9|
5,4,3.2|
5,5,6.1|
5,6,9.2|
5,7,4.9|
6,0,3.1|
6,1,7.9|
6,2,6.1|
6,3,8.6|
6,4,7.1|
6,5,7.3|
6,6,7|
6,7,2.8|
7,0,8.2|
7,1,0.57|
7,2,9|
7,3,9.2|
7,4,8.5|
7,5,8.7|
7,6,2.5|
7,7,1.8|
];
constraint_x11_x7=[
0,0,9.2|
0,1,4.2|
0,2,8.4|
0,3,1.6|
0,4,5.6|
0,5,3.1|
0,6,8.7|
0,7,4|
1,0,7.9|
1,1,8.1|
1,2,2|
1,3,0.34|
1,4,5.4|
1,5,5.9|
1,6,0.79|
1,7,2.4|
2,0,9|
2,1,7.2|
2,2,1.2|
2,3,1.6|
2,4,7.1|
2,5,8.3|
2,6,0.17|
2,7,7.2|
3,0,0.062|
3,1,0.28|
3,2,4.1|
3,3,3.1|
3,4,2.9|
3,5,8.8|
3,6,4.6|
3,7,1.6|
4,0,7.6|
4,1,7.9|
4,2,4.1|
4,3,2.7|
4,4,4.6|
4,5,8.1|
4,6,7|
4,7,1|
5,0,0.3|
5,1,5.5|
5,2,7.5|
5,3,9|
5,4,9.5|
5,5,9|
5,6,3.2|
5,7,3.7|
6,0,6.9|
6,1,8|
6,2,3.3|
6,3,7.8|
6,4,1.9|
6,5,4.6|
6,6,6.7|
6,7,2.8|
7,0,6.3|
7,1,0.64|
7,2,4.4|
7,3,5.7|
7,4,1.4|
7,5,8.5|
7,6,9.9|
7,7,0.6|
];
constraint_x11_x10=[
0,0,2.8|
0,1,5.9|
0,2,0.79|
0,3,0.91|
0,4,0.72|
0,5,8.2|
0,6,1.3|
0,7,5.5|
1,0,7.6|
1,1,5|
1,2,5.9|
1,3,3|
1,4,8.4|
1,5,4.7|
1,6,4.6|
1,7,0.12|
2,0,4.7|
2,1,1.8|
2,2,9.4|
2,3,8.2|
2,4,7.3|
2,5,8.1|
2,6,2.8|
2,7,6.5|
3,0,2|
3,1,6.1|
3,2,3.8|
3,3,0.45|
3,4,8.6|
3,5,5.4|
3,6,9.5|
3,7,2.2|
4,0,4.8|
4,1,8.5|
4,2,5.5|
4,3,4.4|
4,4,5.4|
4,5,3.7|
4,6,9|
4,7,5.4|
5,0,2|
5,1,5.3|
5,2,0.31|
5,3,7.5|
5,4,8.4|
5,5,0.37|
5,6,7|
5,7,7.8|
6,0,7.7|
6,1,6.8|
6,2,2.4|
6,3,2.3|
6,4,6.3|
6,5,8.9|
6,6,7.5|
6,7,7.6|
7,0,4.1|
7,1,5.9|
7,2,4.7|
7,3,7|
7,4,4.9|
7,5,8.3|
7,6,5.6|
7,7,0.21|
];
constraint_x12_x8=[
0,0,9.6|
0,1,3.4|
0,2,3.2|
0,3,1.7|
0,4,9.3|
0,5,0.26|
0,6,8.3|
0,7,0.92|
1,0,3.2|
1,1,2.1|
1,2,2.1|
1,3,4.6|
1,4,2.5|
1,5,5.5|
1,6,8.2|
1,7,2.5|
2,0,4.9|
2,1,7.2|
2,2,4.6|
2,3,3.3|
2,4,0.61|
2,5,0.75|
2,6,5.8|
2,7,2.6|
3,0,4.1|
3,1,2.1|
3,2,8.7|
3,3,0.33|
3,4,4.9|
3,5,5|
3,6,5.7|
3,7,8.6|
4,0,7.3|
4,1,0.91|
4,2,3.9|
4,3,7.9|
4,4,6|
4,5,4.2|
4,6,1.8|
4,7,2.1|
5,0,3|
5,1,4.6|
5,2,1.3|
5,3,6.3|
5,4,5.8|
5,5,1.8|
5,6,9.3|
5,7,8.6|
6,0,0.32|
6,1,2.1|
6,2,6.3|
6,3,6.3|
6,4,0.74|
6,5,5.3|
6,6,9.9|
6,7,2.1|
7,0,1.2|
7,1,3.7|
7,2,6.4|
7,3,4.1|
7,4,6.6|
7,5,6|
7,6,3.1|
7,7,2.6|
];
constraint_x12_x11=[
0,0,3.7|
0,1,2.6|
0,2,3.4|
0,3,4.3|
0,4,0.23|
0,5,4.9|
0,6,1.8|
0,7,4.2|
1,0,9.9|
1,1,2.5|
1,2,8.5|
1,3,1.4|
1,4,9.7|
1,5,8.3|
1,6,2.8|
1,7,0.92|
2,0,9.6|
2,1,0.13|
2,2,9.6|
2,3,1.6|
2,4,2.7|
2,5,2.2|
2,6,9.4|
2,7,0.97|
3,0,2.2|
3,1,10|
3,2,3|
3,3,1.5|
3,4,6|
3,5,8|
3,6,1.5|
3,7,2.1|
4,0,8.8|
4,1,6.1|
4,2,1.6|
4,3,7.7|
4,4,7|
4,5,8.3|
4,6,9.7|
4,7,0.73|
5,0,3.6|
5,1,2.9|
5,2,4.9|
5,3,7.2|
5,4,2|
5,5,0.15|
5,6,0.4|
5,7,7.8|
6,0,8.4|
6,1,9.2|
6,2,3.1|
6,3,6.3|
6,4,9.3|
6,5,5.2|
6,6,7.2|
6,7,7|
7,0,5.7|
7,1,8.5|
7,2,6.7|
7,3,3.8|
7,4,6.4|
7,5,5.4|
7,6,7.3|
7,7,1.1|
];
constraint_x13_x9=[
0,0,4|
0,1,2.7|
0,2,1.4|
0,3,5.8|
0,4,1.8|
0,5,5.8|
0,6,6.8|
0,7,5.2|
1,0,9|
1,1,1.3|
1,2,7.7|
1,3,1.7|
1,4,4.4|
1,5,2.4|
1,6,9.8|
1,7,5.4|
2,0,7.8|
2,1,0.69|
2,2,7.1|
2,3,9.2|
2,4,0.53|
2,5,6.5|
2,6,0.45|
2,7,0.64|
3,0,2.7|
3,1,3.3|
3,2,5.4|
3,3,0.69|
3,4,7|
3,5,4|
3,6,5.3|
3,7,6.8|
4,0,4.6|
4,1,8.4|
4,2,2.7|
4,3,1.1|
4,4,9.8|
4,5,7.8|
4,6,8.5|
4,7,1.4|
5,0,0.78|
5,1,9.3|
5,2,8.3|
5,3,8.1|
5,4,4.5|
5,5,1.4|
5,6,0.56|
5,7,3.4|
6,0,7.7|
6,1,0.12|
6,2,9.4|
6,3,1.2|
6,4,4.1|
6,5,9.6|
6,6,2|
6,7,3.7|
7,0,9.6|
7,1,2.4|
7,2,6.7|
7,3,1.4|
7,4,2.7|
7,5,4.5|
7,6,2.3|
7,7,6|
];
constraint_x14_x10=[
0,0,3.5|
0,1,5.6|
0,2,4.2|
0,3,2.3|
0,4,3.2|
0,5,0.74|
0,6,0.23|
0,7,0.44|
1,0,1.9|
1,1,3.8|
1,2,7.9|
1,3,1.6|
1,4,1.2|
1,5,1.1|
1,6,8.4|
1,7,2.1|
2,0,4.4|
2,1,4.6|
2,2,3.3|
2,3,0.31|
2,4,7.1|
2,5,2.9|
2,6,6.7|
2,7,7.9|
3,0,7.1|
3,1,6.1|
3,2,9.4|
3,3,0.0017|
3,4,6.1|
3,5,5.4|
3,6,2.6|
3,7,1.1|
4,0,3.1|
4,1,1.2|
4,2,3.7|
4,3,8.3|
4,4,5.5|
4,5,6.4|
4,6,6.9|
4,7,8.5|
5,0,4.1|
5,1,1.2|
5,2,3.9|
5,3,0.33|
5,4,7.7|
5,5,0.11|
5,6,6.6|
5,7,2.6|
6,0,9.1|
6,1,6.3|
6,2,2.4|
6,3,0.31|
6,4,7.7|
6,5,4.8|
6,6,6|
6,7,0.1|
7,0,9.3|
7,1,0.55|
7,2,9.4|
7,3,0.37|
7,4,4.7|
7,5,9.7|
7,6,8.1|
7,7,9.3|
];
constraint_x14_x13=[
0,0,5|
0,1,5.9|
0,2,5.3|
0,3,2.5|
0,4,3.2|
0,5,5.5|
0,6,3.3|
0,7,3.5|
1,0,8.4|
1,1,8|
1,2,4.3|
1,3,6.1|
1,4,3.4|
1,5,9.5|
1,6,6.3|
1,7,1.7|
2,0,4.2|
2,1,7.5|
2,2,9|
2,3,0.069|
2,4,4.4|
2,5,4.6|
2,6,2.3|
2,7,3.5|
3,0,4.9|
3,1,2.9|
3,2,8.7|
3,3,6.1|
3,4,1|
3,5,2.4|
3,6,5.9|
3,7,7.3|
4,0,0.9|
4,1,4.1|
4,2,2.9|
4,3,5|
4,4,6.9|
4,5,0.56|
4,6,8.1|
4,7,8.9|
5,0,3.7|
5,1,2.8|
5,2,2.2|
5,3,0.32|
5,4,6.2|
5,5,0.9|
5,6,8.1|
5,7,2.4|
6,0,7.2|
6,1,5.4|
6,2,0.21|
6,3,9.9|
6,4,1.8|
6,5,5.2|
6,6,2.9|
6,7,9.1|
7,0,7.5|
7,1,1.1|
7,2,8.5|
7,3,2.5|
7,4,3.2|
7,5,3.7|
7,6,1.7|
7,7,5.7|
];
constraint_x15_x11=[
0,0,4.1|
0,1,7.6|
0,2,6.2|
0,3,7.6|
0,4,9.5|
0,5,8.2|
0,6,5.6|
0,7,8.6|
1,0,0.56|
1,1,3.6|
1,2,0.55|
1,3,6.4|
1,4,8.4|
1,5,2.9|
1,6,9.9|
1,7,4|
2,0,1.7|
2,1,6.7|
2,2,2.8|
2,3,7.2|
2,4,0.24|
2,5,3.5|
2,6,0.14|
2,7,4|
3,0,1.3|
3,1,4.4|
3,2,2.3|
3,3,6.7|
3,4,7.4|
3,5,7.4|
3,6,3.6|
3,7,3.9|
4,0,8.1|
4,1,4.2|
4,2,1.2|
4,3,0.23|
4,4,4.1|
4,5,4.6|
4,6,2.1|
4,7,3.1|
5,0,2.4|
5,1,3.7|
5,2,6|
5,3,3.8|
5,4,8.5|
5,5,3|
5,6,4.8|
5,7,4|
6,0,0.003|
6,1,8.4|
6,2,6|
6,3,7.4|
6,4,7|
6,5,8.3|
6,6,7.6|
6,7,5.7|
7,0,1.6|
7,1,3.1|
7,2,0.5|
7,3,6.6|
7,4,7.9|
7,5,5.8|
7,6,1.4|
7,7,5.5|
];
constraint_x15_x14=[
0,0,4.6|
0,1,7.5|
0,2,4.2|
0,3,6.9|
0,4,4.1|
0,5,3.9|
0,6,6.2|
0,7,7.4|
1,0,5.7|
1,1,5.3|
1,2,7.3|
1,3,6.9|
1,4,6.6|
1,5,4|
1,6,6.7|
1,7,4.7|
2,0,7.2|
2,1,7.2|
2,2,5.6|
2,3,7.7|
2,4,7.6|
2,5,1.7|
2,6,3.3|
2,7,2.7|
3,0,5.5|
3,1,4.6|
3,2,8.4|
3,3,4|
3,4,2.6|
3,5,6|
3,6,3|
3,7,5|
4,0,3.1|
4,1,6.2|
4,2,7.6|
4,3,6|
4,4,9.2|
4,5,4.8|
4,6,6.8|
4,7,2.2|
5,0,3.3|
5,1,1.5|
5,2,9.9|
5,3,8.3|
5,4,7|
5,5,3.5|
5,6,3|
5,7,5.5|
6,0,7.6|
6,1,2.3|
6,2,5.6|
6,3,5|
6,4,10|
6,5,1.5|
6,6,5|
6,7,8|
7,0,6.2|
7,1,0.71|
7,2,7.9|
7,3,2.4|
7,4,8.7|
7,5,6.5|
7,6,1.5|
7,7,0.32|
];
constraint_x16_x12=[
0,0,3|
0,1,7.7|
0,2,1.3|
0,3,5.5|
0,4,5.9|
0,5,2.4|
0,6,0.86|
0,7,5.8|
1,0,2.6|
1,1,9.7|
1,2,9.9|
1,3,10|
1,4,7.3|
1,5,8.5|
1,6,6.7|
1,7,3.3|
2,0,7.9|
2,1,5.4|
2,2,2.1|
2,3,5.2|
2,4,5.2|
2,5,2.2|
2,6,9.6|
2,7,8.3|
3,0,7|
3,1,7.9|
3,2,8.9|
3,3,7.7|
3,4,6.8|
3,5,4.5|
3,6,1.4|
3,7,7.6|
4,0,4.9|
4,1,2.9|
4,2,3.6|
4,3,3.5|
4,4,1.9|
4,5,9.6|
4,6,7.7|
4,7,2.2|
5,0,6.1|
5,1,1.7|
5,2,9|
5,3,0.77|
5,4,4.5|
5,5,7.7|
5,6,5.4|
5,7,7.3|
6,0,7.9|
6,1,1.5|
6,2,6.2|
6,3,6|
6,4,8.7|
6,5,8|
6,6,8.4|
6,7,2.1|
7,0,0.68|
7,1,3.6|
7,2,6.7|
7,3,2.8|
7,4,9.2|
7,5,3.6|
7,6,9|
7,7,9.5|
];
constraint_x16_x15=[
0,0,7.8|
0,1,9.8|
0,2,6.4|
0,3,7.3|
0,4,6.3|
0,5,5.3|
0,6,3.5|
0,7,3.6|
1,0,1.4|
1,1,5.7|
1,2,2.2|
1,3,1.3|
1,4,6.3|
1,5,7.1|
1,6,4.2|
1,7,9|
2,0,5.9|
2,1,3.7|
2,2,4|
2,3,8.8|
2,4,3|
2,5,4|
2,6,8.9|
2,7,7.8|
3,0,6.1|
3,1,8.3|
3,2,3.2|
3,3,1.1|
3,4,0.023|
3,5,6.4|
3,6,8|
3,7,5.4|
4,0,3|
4,1,7.4|
4,2,6.1|
4,3,1.2|
4,4,9|
4,5,8.1|
4,6,1.8|
4,7,6.9|
5,0,4.3|
5,1,1.2|
5,2,0.21|
5,3,6.2|
5,4,3.9|
5,5,2.2|
5,6,1.9|
5,7,9.4|
6,0,2.4|
6,1,2.4|
6,2,2.5|
6,3,5.8|
6,4,8.3|
6,5,4.9|
6,6,0.73|
6,7,9.3|
7,0,0.23|
7,1,3|
7,2,4|
7,3,3.9|
7,4,0.72|
7,5,9.1|
7,6,9.6|
7,7,7.3|
];
constraint_x17_x13=[
0,0,4.4|
0,1,8.5|
0,2,9.6|
0,3,6.4|
0,4,8.6|
0,5,9.2|
0,6,7.4|
0,7,3.1|
1,0,3.5|
1,1,1.9|
1,2,1.8|
1,3,6.4|
1,4,6.4|
1,5,8|
1,6,6.6|
1,7,9.7|
2,0,0.59|
2,1,4.6|
2,2,2.2|
2,3,7.4|
2,4,1.3|
2,5,0.52|
2,6,4.4|
2,7,5.4|
3,0,9.1|
3,1,9|
3,2,4.5|
3,3,0.18|
3,4,9.1|
3,5,7|
3,6,1.2|
3,7,1.6|
4,0,8.1|
4,1,8.6|
4,2,5.1|
4,3,3.8|
4,4,4.4|
4,5,6.4|
4,6,0.33|
4,7,2|
5,0,5.4|
5,1,7.1|
5,2,8.5|
5,3,6.6|
5,4,3.2|
5,5,3.9|
5,6,6.9|
5,7,8.1|
6,0,7.4|
6,1,4.1|
6,2,3.7|
6,3,6.6|
6,4,4.8|
6,5,8.3|
6,6,3.2|
6,7,5.1|
7,0,5.6|
7,1,7.9|
7,2,1.7|
7,3,8.5|
7,4,4.8|
7,5,9.8|
7,6,0.46|
7,7,9.9|
];
constraint_x18_x14=[
0,0,9.6|
0,1,0.55|
0,2,4.5|
0,3,6.4|
0,4,4.4|
0,5,9.2|
0,6,7.9|
0,7,1.4|
1,0,0.18|
1,1,1.1|
1,2,4.7|
1,3,1.4|
1,4,5.4|
1,5,4.8|
1,6,4.5|
1,7,1.3|
2,0,7.9|
2,1,9.4|
2,2,3.5|
2,3,3.1|
2,4,5|
2,5,5.9|
2,6,8.8|
2,7,6|
3,0,9.8|
3,1,7.7|
3,2,8.9|
3,3,0.28|
3,4,7.4|
3,5,1.8|
3,6,5.3|
3,7,8.8|
4,0,2.4|
4,1,4.9|
4,2,3.9|
4,3,4.2|
4,4,0.41|
4,5,6.4|
4,6,2|
4,7,2.2|
5,0,0.05|
5,1,2.7|
5,2,2.5|
5,3,7.8|
5,4,5.6|
5,5,0.69|
5,6,8.2|
5,7,8.5|
6,0,9.3|
6,1,0.92|
6,2,9|
6,3,1.7|
6,4,2.8|
6,5,4.3|
6,6,7.8|
6,7,1.7|
7,0,7.9|
7,1,0.39|
7,2,8.2|
7,3,4.5|
7,4,4.5|
7,5,5.2|
7,6,7.7|
7,7,5.4|
];
constraint_x19_x15=[
0,0,6.8|
0,1,4.1|
0,2,4.3|
0,3,6.1|
0,4,3.8|
0,5,2.3|
0,6,2.8|
0,7,3.3|
1,0,2|
1,1,8.7|
1,2,10|
1,3,4.5|
1,4,8.1|
1,5,1.4|
1,6,8.3|
1,7,6.4|
2,0,6.8|
2,1,3|
2,2,9.7|
2,3,8.3|
2,4,7.2|
2,5,5.7|
2,6,3|
2,7,5.6|
3,0,8.4|
3,1,4.6|
3,2,7.9|
3,3,1.1|
3,4,8.4|
3,5,9.3|
3,6,2.6|
3,7,4.5|
4,0,6.7|
4,1,2.9|
4,2,5.2|
4,3,2.2|
4,4,9.2|
4,5,9.3|
4,6,6.1|
4,7,8.2|
5,0,9.5|
5,1,9|
5,2,7.1|
5,3,9.2|
5,4,2.4|
5,5,1.2|
5,6,6.8|
5,7,6.5|
6,0,2.2|
6,1,8.7|
6,2,2.6|
6,3,9.2|
6,4,5.9|
6,5,7.4|
6,6,2.5|
6,7,4.3|
7,0,7.7|
7,1,1.1|
7,2,0.65|
7,3,3.9|
7,4,6.1|
7,5,9.6|
7,6,0.089|
7,7,8.3|
];
constraint_x20_x16=[
0,0,1.7|
0,1,2|
0,2,4|
0,3,8.5|
0,4,4.2|
0,5,1.4|
0,6,7.2|
0,7,8.9|
1,0,3.9|
1,1,3.2|
1,2,2.1|
1,3,9.7|
1,4,2.3|
1,5,0.15|
1,6,7.7|
1,7,5.3|
2,0,2.9|
2,1,1.7|
2,2,9.5|
2,3,2.2|
2,4,0.44|
2,5,8|
2,6,5.2|
2,7,3.1|
3,0,5.4|
3,1,3.4|
3,2,2.2|
3,3,0.19|
3,4,5.7|
3,5,0.9|
3,6,3.6|
3,7,2.4|
4,0,3.9|
4,1,5|
4,2,4.7|
4,3,2.5|
4,4,3.4|
4,5,9.3|
4,6,9.4|
4,7,5.6|
5,0,2.7|
5,1,5.6|
5,2,3.9|
5,3,7.4|
5,4,9.6|
5,5,1.5|
5,6,5.7|
5,7,3.7|
6,0,5.2|
6,1,2.3|
6,2,8.4|
6,3,2.8|
6,4,8.6|
6,5,4.6|
6,6,6.8|
6,7,3.5|
7,0,9.4|
7,1,0.18|
7,2,3|
7,3,4.3|
7,4,9.9|
7,5,0.33|
7,6,1.4|
7,7,4.7|
];
constraint_x1_y1=[
0,0,4.2|
0,1,5.4|
0,2,0.26|
0,3,2.7|
0,4,3.6|
0,5,7.7|
0,6,0.79|
0,7,8.6|
1,0,3.3|
1,1,5.5|
1,2,9.4|
1,3,3.8|
1,4,2.9|
1,5,2.8|
1,6,4.7|
1,7,9.8|
2,0,2.5|
2,1,5.8|
2,2,1.3|
2,3,0.23|
2,4,3.6|
2,5,8.8|
2,6,1|
2,7,7.2|
3,0,0.85|
3,1,6.2|
3,2,6.1|
3,3,8.8|
3,4,5.6|
3,5,4.4|
3,6,3|
3,7,8.2|
4,0,2.1|
4,1,0.19|
4,2,7.5|
4,3,4.4|
4,4,8.5|
4,5,8.8|
4,6,7.2|
4,7,2.9|
5,0,7.4|
5,1,6.3|
5,2,4.6|
5,3,4.8|
5,4,2|
5,5,5.1|
5,6,4.1|
5,7,6.4|
6,0,4.3|
6,1,6.1|
6,2,7.2|
6,3,9.2|
6,4,0.79|
6,5,3.4|
6,6,4.5|
6,7,6.5|
7,0,8.2|
7,1,7.6|
7,2,5.6|
7,3,4.5|
7,4,0.95|
7,5,9.3|
7,6,5|
7,7,4.9|
];
constraint_x2_y2=[
0,0,7.3|
0,1,0.47|
0,2,7.3|
0,3,4.9|
0,4,9.7|
0,5,9.4|
0,6,0.62|
0,7,9.8|
1,0,0.15|
1,1,4|
1,2,7.3|
1,3,3.3|
1,4,0.52|
1,5,9.2|
1,6,6.4|
1,7,8.7|
2,0,7.5|
2,1,6.8|
2,2,3.5|
2,3,5.5|
2,4,9.5|
2,5,8.4|
2,6,4|
2,7,9.9|
3,0,6.5|
3,1,3.6|
3,2,1.9|
3,3,9.3|
3,4,4.7|
3,5,9.4|
3,6,8.5|
3,7,6.4|
4,0,8.9|
4,1,6.7|
4,2,8.1|
4,3,2.3|
4,4,3.1|
4,5,1.3|
4,6,0.35|
4,7,7.6|
5,0,1.2|
5,1,6|
5,2,8|
5,3,5.1|
5,4,1.8|
5,5,5|
5,6,5.6|
5,7,1.4|
6,0,1.3|
6,1,5|
6,2,7|
6,3,8.3|
6,4,2.2|
6,5,2.4|
6,6,3.2|
6,7,8.5|
7,0,1.5|
7,1,8.7|
7,2,2.8|
7,3,1.2|
7,4,4.3|
7,5,9.9|
7,6,6.2|
7,7,3.3|
];
constraint_x3_y3=[
0,0,9.6|
0,1,8.9|
0,2,6.8|
0,3,1.6|
0,4,1.3|
0,5,7.1|
0,6,5.9|
0,7,7.8|
1,0,5.8|
1,1,0.33|
1,2,8.3|
1,3,4.8|
1,4,9.7|
1,5,2.3|
1,6,4.1|
1,7,6.9|
2,0,0.19|
2,1,9.3|
2,2,6.8|
2,3,0.52|
2,4,5.3|
2,5,7.7|
2,6,0.22|
2,7,7.1|
3,0,9.1|
3,1,0.44|
3,2,2|
3,3,0.093|
3,4,2.9|
3,5,7.2|
3,6,6.1|
3,7,7.3|
4,0,4.2|
4,1,7.2|
4,2,6.7|
4,3,5.6|
4,4,3|
4,5,7|
4,6,7.5|
4,7,0.96|
5,0,2.8|
5,1,2.6|
5,2,9.1|
5,3,7.2|
5,4,4.7|
5,5,7.7|
5,6,0.098|
5,7,0.14|
6,0,1|
6,1,8.9|
6,2,3.9|
6,3,4.5|
6,4,1.6|
6,5,2.1|
6,6,7.8|
6,7,9.9|
7,0,0.41|
7,1,1.1|
7,2,6.4|
7,3,8.1|
7,4,8.6|
7,5,0.43|
7,6,0.8|
7,7,0.73|
];
constraint_x4_y4=[
0,0,0.42|
0,1,4.2|
0,2,0.24|
0,3,6.7|
0,4,2.5|
0,5,0.82|
0,6,8.3|
0,7,1.3|
1,0,3|
1,1,6.9|
1,2,1.6|
1,3,2.5|
1,4,1.1|
1,5,5|
1,6,7.2|
1,7,8.6|
2,0,6.5|
2,1,8.1|
2,2,6.8|
2,3,7.5|
2,4,3.1|
2,5,1.6|
2,6,4.5|
2,7,1.8|
3,0,1.3|
3,1,3.8|
3,2,6.9|
3,3,9.2|
3,4,0.24|
3,5,6.8|
3,6,5.6|
3,7,7.8|
4,0,8.6|
4,1,2.1|
4,2,6.2|
4,3,9.9|
4,4,7.8|
4,5,4.1|
4,6,1.7|
4,7,2.8|
5,0,2.3|
5,1,2.7|
5,2,0.68|
5,3,3.7|
5,4,7.4|
5,5,9.9|
5,6,5.6|
5,7,9.5|
6,0,9.6|
6,1,1.2|
6,2,5.6|
6,3,8.3|
6,4,4.2|
6,5,5|
6,6,3.4|
6,7,6.5|
7,0,7.4|
7,1,9.6|
7,2,3.8|
7,3,9|
7,4,8.8|
7,5,8|
7,6,8.6|
7,7,3.3|
];
constraint_x5_y5=[
0,0,0.46|
0,1,6.1|
0,2,2.9|
0,3,5.5|
0,4,2.8|
0,5,3.7|
0,6,0.29|
0,7,8.3|
1,0,6.7|
1,1,1.1|
1,2,4.4|
1,3,9.9|
1,4,1.6|
1,5,8.2|
1,6,1.3|
1,7,8.7|
2,0,4|
2,1,8.2|
2,2,0.44|
2,3,6.6|
2,4,4.9|
2,5,6.3|
2,6,1.5|
2,7,8.3|
3,0,0.99|
3,1,1.9|
3,2,3.8|
3,3,2.3|
3,4,1.9|
3,5,8.6|
3,6,2.6|
3,7,4.3|
4,0,7.1|
4,1,9.1|
4,2,8|
4,3,0.26|
4,4,1.2|
4,5,2.7|
4,6,6.5|
4,7,1.5|
5,0,3.7|
5,1,5.9|
5,2,6.5|
5,3,1.7|
5,4,8|
5,5,1.3|
5,6,5|
5,7,5.7|
6,0,1.2|
6,1,0.75|
6,2,7.6|
6,3,3.3|
6,4,1.7|
6,5,2.5|
6,6,6|
6,7,4.3|
7,0,7.7|
7,1,0.46|
7,2,5.9|
7,3,2.6|
7,4,3.4|
7,5,8.8|
7,6,4.5|
7,7,4.8|
];
constraint_x6_y6=[
0,0,6.6|
0,1,7.4|
0,2,3.9|
0,3,4.5|
0,4,1.4|
0,5,4.8|
0,6,1.8|
0,7,3|
1,0,7.2|
1,1,8.5|
1,2,3.6|
1,3,5.3|
1,4,4.1|
1,5,7.9|
1,6,7.3|
1,7,8.3|
2,0,3.3|
2,1,7.2|
2,2,8.6|
2,3,2.1|
2,4,8.6|
2,5,2.6|
2,6,9.8|
2,7,4.7|
3,0,5.3|
3,1,2.3|
3,2,7.7|
3,3,0.22|
3,4,7.7|
3,5,1.7|
3,6,6.3|
3,7,2.8|
4,0,4.6|
4,1,9.8|
4,2,7.2|
4,3,5.7|
4,4,9.2|
4,5,9.3|
4,6,2.5|
4,7,4.2|
5,0,3.6|
5,1,0.67|
5,2,0.1|
5,3,9.3|
5,4,0.9|
5,5,5.1|
5,6,1.8|
5,7,0.58|
6,0,6.3|
6,1,4.5|
6,2,1.9|
6,3,6|
6,4,3.4|
6,5,7.9|
6,6,2.5|
6,7,3.4|
7,0,9.5|
7,1,7.4|
7,2,3.9|
7,3,1.2|
7,4,9.7|
7,5,9.5|
7,6,0.39|
7,7,0.57|
];
constraint_x7_y7=[
0,0,4.4|
0,1,0.94|
0,2,2.9|
0,3,9|
0,4,6.8|
0,5,4.9|
0,6,7.6|
0,7,0.022|
1,0,4.6|
1,1,4|
1,2,8.6|
1,3,3.5|
1,4,3.1|
1,5,3.9|
1,6,9.9|
1,7,4.7|
2,0,0.57|
2,1,0.13|
2,2,0.49|
2,3,0.99|
2,4,6.5|
2,5,6|
2,6,4.5|
2,7,0.064|
3,0,5.2|
3,1,0.28|
3,2,3.6|
3,3,0.56|
3,4,2.5|
3,5,9.4|
3,6,0.2|
3,7,4|
4,0,5.9|
4,1,5.3|
4,2,7.5|
4,3,1.9|
4,4,3|
4,5,3.6|
4,6,5.2|
4,7,4.8|
5,0,5.2|
5,1,6.1|
5,2,2.1|
5,3,9.7|
5,4,1|
5,5,1.8|
5,6,4.6|
5,7,4.4|
6,0,7|
6,1,5.8|
6,2,2.4|
6,3,5|
6,4,9.4|
6,5,4.9|
6,6,1.8|
6,7,7.1|
7,0,3.7|
7,1,4.6|
7,2,5.2|
7,3,1.1|
7,4,8.7|
7,5,1|
7,6,4.8|
7,7,3.2|
];
constraint_x8_y8=[
0,0,0.23|
0,1,0.21|
0,2,4.8|
0,3,3.6|
0,4,1.8|
0,5,8.6|
0,6,1.9|
0,7,3.7|
1,0,5.3|
1,1,7.1|
1,2,5.9|
1,3,4.7|
1,4,3.5|
1,5,3.9|
1,6,5.5|
1,7,4|
2,0,0.24|
2,1,7.9|
2,2,1.6|
2,3,6.3|
2,4,7.4|
2,5,7.7|
2,6,4|
2,7,2.5|
3,0,7.5|
3,1,5.4|
3,2,3.5|
3,3,3.5|
3,4,9.3|
3,5,5.3|
3,6,6.9|
3,7,2.5|
4,0,1.3|
4,1,9|
4,2,7.6|
4,3,6.2|
4,4,6.1|
4,5,6|
4,6,0.049|
4,7,0.2|
5,0,9.4|
5,1,7.7|
5,2,4.4|
5,3,6.3|
5,4,8.4|
5,5,8.1|
5,6,6.7|
5,7,1.1|
6,0,7.2|
6,1,6.9|
6,2,3.2|
6,3,2.8|
6,4,1.9|
6,5,4.6|
6,6,5.7|
6,7,7.8|
7,0,4.4|
7,1,1.5|
7,2,4|
7,3,7.2|
7,4,2.4|
7,5,5.1|
7,6,5.4|
7,7,3.1|
];
constraint_x9_y9=[
0,0,8.4|
0,1,9.8|
0,2,5.9|
0,3,6.9|
0,4,2.2|
0,5,5.5|
0,6,6.4|
0,7,7.7|
1,0,0.26|
1,1,2.1|
1,2,9.9|
1,3,7.4|
1,4,1.1|
1,5,5.3|
1,6,1.7|
1,7,1.1|
2,0,3.4|
2,1,1.4|
2,2,7.5|
2,3,5.3|
2,4,5.4|
2,5,6.6|
2,6,9.4|
2,7,7.1|
3,0,3|
3,1,6.6|
3,2,7.9|
3,3,1.3|
3,4,9.1|
3,5,3.4|
3,6,2.2|
3,7,0.85|
4,0,2.8|
4,1,8.9|
4,2,0.83|
4,3,7.8|
4,4,5|
4,5,6|
4,6,4.8|
4,7,8.3|
5,0,5.5|
5,1,8.5|
5,2,9.3|
5,3,1.2|
5,4,0.41|
5,5,0.47|
5,6,2.7|
5,7,1.1|
6,0,3.7|
6,1,8.8|
6,2,5.8|
6,3,9.9|
6,4,0.23|
6,5,9.4|
6,6,5.7|
6,7,4.3|
7,0,8.6|
7,1,2.7|
7,2,6.6|
7,3,7|
7,4,9.5|
7,5,6.9|
7,6,7.8|
7,7,8.4|
];
initial_distribution_y1=[0.035,0.2,0.055,0.23,0.19,0.092,0.031,0.18];
initial_distribution_y2=[0.023,0.071,0.16,0.12,0.18,0.21,0.13,0.12];
initial_distribution_y3=[0.11,0.091,0.24,0.13,0.0093,0.17,0.25,0.0048];
initial_distribution_y4=[0.16,0.12,0.031,0.12,0.12,0.23,0.12,0.09];
initial_distribution_y5=[0.11,0.037,0.15,0.14,0.15,0.091,0.17,0.16];
initial_distribution_y6=[0.042,0.16,0.093,0.093,0.16,0.19,0.09,0.17];
initial_distribution_y7=[0.13,0.027,0.026,0.3,0.25,0.059,0.09,0.12];
initial_distribution_y8=[0.023,0.26,0.15,0.19,0.014,0.14,0.19,0.025];
initial_distribution_y9=[0.094,0.2,0.15,0.11,0.071,0.1,0.18,0.09];
transition_y1=[
0.065,0.14,0.2,0.13,0.21,0.15,0.062,0.034|
0.11,0.13,0.13,0.067,0.088,0.066,0.17,0.23|
0.15,0.24,0.21,0.011,0.15,0.032,0.091,0.12|
0.07,0.16,0.088,0.086,0.19,0.14,0.23,0.042|
0.16,0.11,0.032,0.15,0.15,0.14,0.14,0.12|
0.15,0.14,0.16,0.0048,0.2,0.009,0.27,0.061|
0.035,0.14,0.17,0.21,0.11,0.035,0.18,0.12|
0.1,0.16,0.21,0.16,0.037,0.057,0.21,0.063|
];
transition_y2=[
0.14,0.2,0.024,0.21,0.094,0.12,0.096,0.11|
0.12,0.14,0.15,0.066,0.13,0.13,0.12,0.14|
0.015,0.061,0.27,0.17,0.39,0.081,0.0069,0.0085|
0.096,0.097,0.12,0.18,0.19,0.19,0.018,0.12|
0.13,0.017,0.14,0.026,0.24,0.16,0.18,0.11|
0.096,0.14,0.098,0.047,0.18,0.12,0.16,0.16|
0.3,0.1,0.099,0.16,0.029,0.0074,0.033,0.27|
0.17,0.18,0.023,0.11,0.11,0.031,0.18,0.2|
];
transition_y3=[
0.012,0.22,0.067,0.1,0.15,0.29,0.086,0.071|
0.29,0.046,0.12,0.12,0.074,0.33,0.0047,0.01|
0.11,0.13,0.12,0.18,0.2,0.03,0.088,0.13|
0.046,0.084,0.17,0.19,0.14,0.12,0.15,0.1|
0.19,0.21,0.015,0.061,0.21,0.058,0.11,0.14|
0.25,0.04,0.012,0.059,0.18,0.23,0.14,0.089|
0.19,0.18,0.16,0.087,0.022,0.14,0.1,0.13|
0.14,0.073,0.0075,0.16,0.19,0.21,0.11,0.11|
];
transition_y4=[
0.16,0.17,0.1,0.19,0.054,0.085,0.14,0.1|
0.13,0.16,0.25,0.0092,0.0098,0.1,0.11,0.22|
0.17,0.076,0.062,0.022,0.11,0.086,0.2,0.28|
0.24,0.069,0.17,0.056,0.0025,0.096,0.18,0.19|
0.032,0.17,0.21,0.25,0.0051,0.27,0.027,0.041|
0.16,0.18,0.019,0.19,0.13,0.16,0.15,0.014|
0.17,0.15,0.23,0.11,0.0065,0.1,0.04,0.19|
0.093,0.099,0.06,0.12,0.25,0.022,0.12,0.23|
];
transition_y5=[
0.2,0.0059,0.16,0.16,0.091,0.16,0.11,0.11|
0.22,0.17,0.12,0.091,0.05,0.024,0.2,0.14|
0.16,0.074,0.019,0.16,0.16,0.13,0.057,0.24|
0.038,0.068,0.21,0.14,0.092,0.22,0.22,0.015|
0.17,0.22,0.032,0.063,0.015,0.18,0.12,0.2|
0.27,0.04,0.051,0.13,0.25,0.1,0.015,0.15|
0.19,0.011,0.037,0.14,0.082,0.18,0.16,0.21|
0.1,0.18,0.098,0.077,0.084,0.13,0.16,0.16|
];
transition_y6=[
0.15,0.16,0.17,0.0064,0.23,0.19,0.031,0.07|
0.13,0.14,0.078,0.16,0.13,0.18,0.0063,0.18|
0.0041,0.12,0.13,0.22,0.15,0.087,0.22,0.071|
0.051,0.078,0.24,0.16,0.24,0.032,0.047,0.14|
0.034,0.0034,0.19,0.19,0.16,0.19,0.12,0.12|
0.059,0.076,0.1,0.21,0.18,0.094,0.13,0.14|
0.22,0.25,0.096,0.16,0.057,0.091,0.032,0.087|
0.04,0.037,0.084,0.3,0.071,0.28,0.056,0.13|
];
transition_y7=[
0.19,0.28,0.2,0.14,0.064,0.025,0.039,0.056|
0.17,0.18,0.15,0.15,0.079,0.015,0.087,0.16|
0.13,0.21,0.026,0.23,0.14,0.022,0.1,0.13|
0.23,0.026,0.043,0.03,0.04,0.048,0.29,0.3|
0.077,0.047,0.16,0.27,0.15,0.22,0.071,0.013|
0.17,0.21,0.12,0.07,0.14,0.16,0.1,0.021|
0.09,0.18,0.11,0.076,0.2,0.072,0.18,0.08|
0.09,0.041,0.17,0.037,0.17,0.35,0.11,0.03|
];
transition_y8=[
0.081,0.014,0.2,0.2,0.12,0.2,0.15,0.039|
0.073,0.078,0.23,0.22,0.16,0.03,0.056,0.16|
0.11,0.24,0.089,0.12,0.17,0.12,0.08,0.069|
0.2,0.13,0.23,0.16,0.1,0.14,0.012,0.033|
0.21,0.093,0.22,0.039,0.22,0.055,0.14,0.028|
0.046,0.012,0.079,0.075,0.23,0.14,0.23,0.19|
0.18,0.2,0.049,0.017,0.15,0.17,0.13,0.11|
0.08,0.16,0.0055,0.092,0.17,0.13,0.19,0.18|
];
transition_y9=[
0.14,0.06,0.066,0.095,0.33,0.074,0.022,0.21|
0.21,0.19,0.19,0.12,0.09,0.094,0.012,0.094|
0.1,0.038,0.16,0.13,0.098,0.23,0.066,0.18|
0.029,0.19,0.16,0.023,0.12,0.058,0.25,0.17|
0.19,0.19,0.075,0.11,0.086,0.19,0.019,0.14|
0.14,0.22,0.0042,0.077,0.0034,0.12,0.14,0.29|
0.17,0.034,0.2,0.071,0.14,0.22,0.16,0.0073|
0.15,0.17,0.15,0.17,0.16,0.027,0.15,0.017|
];
